NAME: ACTUAL_TOURS/amz0069
TYPE: TOUR
COMMENT: RouteID_07691f7c-5e9c-4d41-99d8-3ab1a58a8d92
DIMENSION: 148
TOUR_SECTION
39
74
56
78
72
19
55
21
41
11
47
136
109
112
57
69
100
22
148
119
89
24
133
16
36
27
17
95
60
130
61
107
131
2
111
94
105
3
65
25
79
102
58
144
15
90
96
98
142
54
84
139
103
66
110
18
124
86
121
62
137
140
4
85
147
32
31
8
30
143
114
91
88
134
71
12
81
87
35
141
14
75
7
59
13
64
77
52
92
50
37
68
80
38
122
145
113
6
49
93
70
97
9
20
23
53
99
125
115
101
126
138
48
120
34
33
117
123
10
45
104
51
118
5
135
116
132
67
1
73
40
108
129
26
82
63
128
44
43
127
29
28
42
76
146
106
83
46
-1
EOF
